
Gurobi 10.0.1 (linux64) logging started Sun Nov 26 17:00:10 2023

Set parameter LogFile to value "ArtificialInstance/ExperimentV2/S4T5K2/AdSp/gurobi91.txt"
Gurobi Optimizer version 10.0.1 build v10.0.1rc0 (linux64)

CPU model: AMD EPYC 7H12 64-Core Processor, instruction set [SSE2|AVX|AVX2]
Thread count: 128 physical cores, 128 logical processors, using up to 32 threads

Academic license 656792 - for non-commercial use only - registered to b.___@student.vu.nl
Optimize a model with 14040 rows, 13215 columns and 50687 nonzeros
Model fingerprint: 0x6af90179
Variable types: 0 continuous, 13215 integer (13215 binary)
Coefficient statistics:
  Matrix range     [1e+00, 1e+00]
  Objective range  [9e-01, 2e+01]
  Bounds range     [1e+00, 1e+00]
  RHS range        [1e+00, 1e+00]
Presolve removed 3055 rows and 3069 columns
Presolve time: 0.23s
Presolved: 10985 rows, 10146 columns, 39985 nonzeros
Variable types: 0 continuous, 10146 integer (10146 binary)

Root relaxation: objective 6.103702e+01, 4678 iterations, 0.13 seconds (0.08 work units)

    Nodes    |    Current Node    |     Objective Bounds      |     Work
 Expl Unexpl |  Obj  Depth IntInf | Incumbent    BestBd   Gap | It/Node Time

*    0     0               0      61.0370197   61.03702  0.00%     -    0s

Explored 1 nodes (4678 simplex iterations) in 0.42 seconds (0.29 work units)
Thread count was 32 (of 128 available processors)

Solution count 1: 61.037 

Optimal solution found (tolerance 1.00e-04)
Best objective 6.103701967972e+01, best bound 6.103701967972e+01, gap 0.0000%
